words_easy_train/words_652_SAT.qaiger
aag 54 16 0 1 38
26
22
24
4
12
28
32
18
6
8
14
2
30
16
10
20
108
34 9 5
36 34 7
38 36 11
40 38 13
42 40 15
44 21 19
46 44 23
48 25 16
50 24 17
52 51 49
54 53 46
56 52 47
58 57 55
60 59 42
62 58 43
64 63 61
66 41 14
68 67 43
70 45 22
72 71 47
74 73 69
76 72 68
78 20 18
80 39 12
82 81 79
84 37 10
86 21 18
88 39 13
90 89 87
92 91 85
94 93 83
96 45 41
98 96 95
100 99 77
102 101 75
104 103 64
106 102 65
108 107 105
i0 1 x2[4]
i1 1 x2[2]
i2 1 x2[3]
i3 2 y1[1]
i4 2 y1[5]
i5 1 x2[5]
i6 1 x2[7]
i7 1 x2[0]
i8 2 y1[2]
i9 2 y1[3]
i10 2 y1[6]
i11 2 y1[0]
i12 1 x2[6]
i13 2 y1[7]
i14 2 y1[4]
i15 1 x2[1]
o0 bv[0]
c
simplified
  >
    << 4
      1 x2
    subtract
      1
      2 y1
