words_easy_train/words_652_SAT.qaiger.qdimacs
p cnf 54 115
a 9 10 11 12 13 14 15 16 0
e 1 2 3 4 5 6 7 8 17 18 19 20 21 22 23 24 25 26 27 28 29 30 31 32 33 34 35 36 37 38 39 40 41 42 43 44 45 46 47 48 49 50 51 52 53 54 0
4 2 17 0
-4 -17 0
-2 -17 0
-17 3 18 0
17 -18 0
-3 -18 0
-18 5 19 0
18 -19 0
-5 -19 0
-19 6 20 0
19 -20 0
-6 -20 0
-20 7 21 0
20 -21 0
-7 -21 0
10 9 22 0
-10 -22 0
-9 -22 0
-22 11 23 0
22 -23 0
-11 -23 0
12 -8 24 0
-12 -24 0
8 -24 0
-12 8 25 0
12 -25 0
-8 -25 0
25 24 26 0
-25 -26 0
-24 -26 0
26 -23 27 0
-26 -27 0
23 -27 0
-26 23 28 0
26 -28 0
-23 -28 0
28 27 29 0
-28 -29 0
-27 -29 0
29 -21 30 0
-29 -30 0
21 -30 0
-29 21 31 0
29 -31 0
-21 -31 0
31 30 32 0
-31 -32 0
-30 -32 0
20 -7 33 0
-20 -33 0
7 -33 0
33 21 34 0
-33 -34 0
-21 -34 0
22 -11 35 0
-22 -35 0
11 -35 0
35 23 36 0
-35 -36 0
-23 -36 0
36 34 37 0
-36 -37 0
-34 -37 0
-36 -34 38 0
36 -38 0
34 -38 0
-10 -9 39 0
10 -39 0
9 -39 0
19 -6 40 0
-19 -40 0
6 -40 0
40 39 41 0
-40 -41 0
-39 -41 0
18 -5 42 0
-18 -42 0
5 -42 0
10 -9 43 0
-10 -43 0
9 -43 0
19 6 44 0
-19 -44 0
-6 -44 0
44 43 45 0
-44 -45 0
-43 -45 0
45 42 46 0
-45 -46 0
-42 -46 0
46 41 47 0
-46 -47 0
-41 -47 0
22 20 48 0
-22 -48 0
-20 -48 0
-48 47 49 0
48 -49 0
-47 -49 0
49 38 50 0
-49 -50 0
-38 -50 0
50 37 51 0
-50 -51 0
-37 -51 0
51 -32 52 0
-51 -52 0
32 -52 0
-51 32 53 0
51 -53 0
-32 -53 0
53 52 54 0
-53 -54 0
-52 -54 0
54 0
